15
0 206 254 211 2 460 624 131 156 35 28 5 3 20 531
206 0 160 267 46 618 237 598 864 525 1 177 101 308 478
254 160 0 90 511 626 139 650 74 447 215 522 46 14 436
211 267 90 0 408 386 469 135 34 17 213 7 66 155 271
2 46 511 408 0 30 197 111 760 345 42 110 10 72 30
460 618 626 386 30 0 136 44 283 268 280 28 154 561 17
624 237 139 469 197 136 0 70 306 36 84 814 554 384 33
131 598 650 135 111 44 70 0 67 61 50 82 36 851 37
156 864 74 34 760 283 306 67 0 89 621 802 420 136 308
35 525 447 17 345 268 36 61 89 0 752 50 7 22 7
28 1 215 213 42 280 84 50 621 752 0 257 260 118 511
5 177 522 7 110 28 814 82 802 50 257 0 272 343 43
3 101 46 66 10 154 554 36 420 7 260 272 0 77 325
20 308 14 155 72 561 384 851 136 22 118 343 77 0 26
531 478 436 271 30 17 33 37 308 7 511 43 325 26 0